* #variable= 100 #constraint= 1
min: -63 x1 -329 x2 -955 x3 -738 x4 -473 x5 -939 x6 -194 x7 -511 x8 -227 x9 -797 x10 -521 x11 -588 x12 -180 x13 -37 x14 -923 x15 -359 x16 -420 x17 -530 x18 -241 x19 -846 x20 -771 x21 -962 x22 -298 x23 -230 x24 -131 x25 -38 x26 -763 x27 -445 x28 -68 x29 -522 x30 -140 x31 -407 x32 -124 x33 -801 x34 -479 x35 -165 x36 -800 x37 -598 x38 -221 x39 -637 x40 -660 x41 -573 x42 -599 x43 -66 x44 -595 x45 -39 x46 -990 x47 -35 x48 -444 x49 -316 x50 -135 x51 -178 x52 -601 x53 -483 x54 -391 x55 -459 x56 -893 x57 -261 x58 -422 x59 -940 x60 -377 x61 -984 x62 -691 x63 -115 x64 -107 x65 -303 x66 -348 x67 -514 x68 -683 x69 -919 x70 -1000 x71 -808 x72 -795 x73 -116 x74 -708 x75 -754 x76 -411 x77 -106 x78 -574 x79 -831 x80 -158 x81 -79 x82 -537 x83 -409 x84 -541 x85 -557 x86 -749 x87 -886 x88 -198 x89 -894 x90 -898 x91 -670 x92 -921 x93 -424 x94 -449 x95 -968 x96 -446 x97 -880 x98 -623 x99 -653 x100 ;
-63 x1 -329 x2 -955 x3 -738 x4 -473 x5 -939 x6 -194 x7 -511 x8 -227 x9 -797 x10 -521 x11 -588 x12 -180 x13 -37 x14 -923 x15 -359 x16 -420 x17 -530 x18 -241 x19 -846 x20 -771 x21 -962 x22 -298 x23 -230 x24 -131 x25 -38 x26 -763 x27 -445 x28 -68 x29 -522 x30 -140 x31 -407 x32 -124 x33 -801 x34 -479 x35 -165 x36 -800 x37 -598 x38 -221 x39 -637 x40 -660 x41 -573 x42 -599 x43 -66 x44 -595 x45 -39 x46 -990 x47 -35 x48 -444 x49 -316 x50 -135 x51 -178 x52 -601 x53 -483 x54 -391 x55 -459 x56 -893 x57 -261 x58 -422 x59 -940 x60 -377 x61 -984 x62 -691 x63 -115 x64 -107 x65 -303 x66 -348 x67 -514 x68 -683 x69 -919 x70 -1000 x71 -808 x72 -795 x73 -116 x74 -708 x75 -754 x76 -411 x77 -106 x78 -574 x79 -831 x80 -158 x81 -79 x82 -537 x83 -409 x84 -541 x85 -557 x86 -749 x87 -886 x88 -198 x89 -894 x90 -898 x91 -670 x92 -921 x93 -424 x94 -449 x95 -968 x96 -446 x97 -880 x98 -623 x99 -653 x100 >= -50584 ;